environments_harbor/cryptominisat_xor_clause_optimization_medium/environment/data/cnf_files/problem_y.cnf
c CNF file: problem_y.cnf
c This file contains various clauses including XOR constraints
c Generated for SAT solver testing
c
p cnf 9 16
c XOR pattern for variables 5, 6, 7
-5 -6 -7 0
5 6 -7 0
5 -6 7 0
-5 6 7 0
c Additional unrelated clauses
1 2 3 4 0
-1 8 0
2 -3 9 0
-2 -4 8 0
3 4 -9 0
-3 1 0
4 -8 9 0
-4 1 2 0
8 9 0
-8 -9 1 0
1 -2 3 0
9 -1 4 0